Welcome to the CBC MILP Solver 
Version: Trunk
Build Date: Apr 16 2020 

Starting solution of the Linear programming relaxation problem using Primal Simplex

Using Python-MIP package version 1.8.1
Machines:  4 Jobs:  4
Order: 
Job  0 : machine 0 ( 10 ) machine 3 ( 1 ) machine 2 ( 6 ) machine 1 ( 7 ) 
Job  1 : machine 0 ( 1 ) machine 3 ( 7 ) machine 1 ( 5 ) machine 2 ( 8 ) 
Job  2 : machine 3 ( 9 ) machine 2 ( 3 ) machine 1 ( 7 ) machine 0 ( 1 ) 
Job  3 : machine 1 ( 7 ) machine 3 ( 3 ) machine 0 ( 9 ) machine 2 ( 10 ) 
K:  44
Job  0 , e: machine  0 ( 0 ) machine  1 ( 17 ) machine  2 ( 11 ) machine  3 ( 10 ) 
Job  1 , e: machine  0 ( 0 ) machine  1 ( 8 ) machine  2 ( 13 ) machine  3 ( 1 ) 
Job  2 , e: machine  0 ( 19 ) machine  1 ( 12 ) machine  2 ( 9 ) machine  3 ( 0 ) 
Job  3 , e: machine  0 ( 10 ) machine  1 ( 0 ) machine  2 ( 19 ) machine  3 ( 7 ) 
Job  0 , f: machine  0 ( 14 ) machine  1 ( 0 ) machine  2 ( 7 ) machine  3 ( 13 ) 
Job  1 , f: machine  0 ( 20 ) machine  1 ( 8 ) machine  2 ( 0 ) machine  3 ( 13 ) 
Job  2 , f: machine  0 ( 0 ) machine  1 ( 1 ) machine  2 ( 8 ) machine  3 ( 11 ) 
Job  3 , f: machine  0 ( 10 ) machine  1 ( 22 ) machine  2 ( 0 ) machine  3 ( 19 ) 
EST and LST:
Job: 0 Machine: 0 EST: 0 LST: 20
Job: 0 Machine: 1 EST: 17 LST: 37
Job: 0 Machine: 2 EST: 11 LST: 31
Job: 0 Machine: 3 EST: 10 LST: 30
Job: 1 Machine: 0 EST: 0 LST: 23
Job: 1 Machine: 1 EST: 8 LST: 31
Job: 1 Machine: 2 EST: 13 LST: 36
Job: 1 Machine: 3 EST: 1 LST: 24
Job: 2 Machine: 0 EST: 19 LST: 43
Job: 2 Machine: 1 EST: 12 LST: 36
Job: 2 Machine: 2 EST: 9 LST: 33
Job: 2 Machine: 3 EST: 0 LST: 24
Job: 3 Machine: 0 EST: 10 LST: 25
Job: 3 Machine: 1 EST: 0 LST: 15
Job: 3 Machine: 2 EST: 19 LST: 34
Job: 3 Machine: 3 EST: 7 LST: 22
Order:
Job: 0 Machine: 0 = 0 
Job: 0 Machine: 1 = 3 
Job: 0 Machine: 2 = 2 
Job: 0 Machine: 3 = 1 
Job: 1 Machine: 0 = 0 
Job: 1 Machine: 1 = 2 
Job: 1 Machine: 2 = 3 
Job: 1 Machine: 3 = 1 
Job: 2 Machine: 0 = 3 
Job: 2 Machine: 1 = 2 
Job: 2 Machine: 2 = 1 
Job: 2 Machine: 3 = 0 
Job: 3 Machine: 0 = 2 
Job: 3 Machine: 1 = 0 
Job: 3 Machine: 2 = 3 
Job: 3 Machine: 3 = 1 
Distances:
Job 0, Machine 0 -> Machine 3: distance 10
Job 0, Machine 0 -> Machine 2: distance 11
Job 0, Machine 0 -> Machine 1: distance 17
Job 0, Machine 3 -> Machine 2: distance 1
Job 0, Machine 3 -> Machine 1: distance 7
Job 0, Machine 2 -> Machine 1: distance 6
Job 1, Machine 0 -> Machine 3: distance 1
Job 1, Machine 0 -> Machine 1: distance 8
Job 1, Machine 0 -> Machine 2: distance 13
Job 1, Machine 3 -> Machine 1: distance 7
Job 1, Machine 3 -> Machine 2: distance 12
Job 1, Machine 1 -> Machine 2: distance 5
Job 2, Machine 3 -> Machine 2: distance 9
Job 2, Machine 3 -> Machine 1: distance 12
Job 2, Machine 3 -> Machine 0: distance 19
Job 2, Machine 2 -> Machine 1: distance 3
Job 2, Machine 2 -> Machine 0: distance 10
Job 2, Machine 1 -> Machine 0: distance 7
Job 3, Machine 1 -> Machine 3: distance 7
Job 3, Machine 1 -> Machine 0: distance 10
Job 3, Machine 1 -> Machine 2: distance 19
Job 3, Machine 3 -> Machine 0: distance 3
Job 3, Machine 3 -> Machine 2: distance 12
Job 3, Machine 0 -> Machine 2: distance 9
McCormic linearization
19.0 13.0 7
14.0 13.0 7
19.0 19.0 10
10.0 7.0 7
7.0 1.0 9
7.0 7.0 3
[(0, 1), (1, 2), (3, 2), (0, 0), (1, 3), (3, 3), (2, 1), (2, 3), (1, 0), (0, 3)]
obj:  0.6000000000000001
solutions:  1
+ x(0,0) + 0.1x(1,0) 
C:  28.999999999999996
x(0,0) = 0.20	 x(0,1) = 19.00	 x(0,2) = 13.00	 x(0,3) = 10.20	 
x(1,0) = 8.00	 x(1,1) = 16.00	 x(1,2) = 21.00	 x(1,3) = 9.00	 
x(2,0) = 20.20	 x(2,1) = 13.20	 x(2,2) = 10.20	 x(2,3) = 1.20	 
x(3,0) = 10.00	 x(3,1) = 0.00	 x(3,2) = 19.00	 x(3,3) = 7.00	 
y(0,1,0) = 0.37	 y(1,0,0) = 0.63	 
y(0,2,0) = 0.48	 y(2,0,0) = 0.52	 
y(0,3,0) = 0.99	 y(3,0,0) = 0.01	 
y(1,2,0) = 0.30	 y(2,1,0) = 0.70	 
y(1,3,0) = 0.96	 y(3,1,0) = 0.04	 
y(2,3,0) = 0.00	 y(3,2,0) = 1.00	 
y(0,1,1) = 0.48	 y(1,0,1) = 0.52	 
y(0,2,1) = 0.05	 y(2,0,1) = 0.95	 
y(0,3,1) = 0.00	 y(3,0,1) = 1.00	 
y(1,2,1) = 0.12	 y(2,1,1) = 0.88	 
y(1,3,1) = 0.38	 y(3,1,1) = 0.62	 
y(2,3,1) = 0.00	 y(3,2,1) = 1.00	 
y(0,1,2) = 0.48	 y(1,0,2) = 0.52	 
y(0,2,2) = 0.44	 y(2,0,2) = 0.56	 
y(0,3,2) = 1.00	 y(3,0,2) = 0.00	 
y(1,2,2) = 0.00	 y(2,1,2) = 1.00	 
y(1,3,2) = 0.26	 y(3,1,2) = 0.74	 
y(2,3,2) = 0.74	 y(3,2,2) = 0.26	 
y(0,1,3) = 0.28	 y(1,0,3) = 0.72	 
y(0,2,3) = 0.00	 y(2,0,3) = 1.00	 
y(0,3,3) = 0.01	 y(3,0,3) = 0.99	 
y(1,2,3) = 0.04	 y(2,1,3) = 0.96	 
y(1,3,3) = 0.04	 y(3,1,3) = 0.96	 
y(2,3,3) = 0.35	 y(3,2,3) = 0.65	 
19.0 15.999999999999996 5
19.0 13.200000000000001 7
15.999999999999996 13.200000000000001 7
12.999999999999998 10.199999999999998 3
21.0 18.999999999999996 10
10.200000000000001 8.999999999999996 7
8.999999999999996 1.1999999999999988 9
obj:  0.9174311926605501
solutions:  1
+ 0.09174311926605536x(0,0) + 0.0825688073394495x(3,0) + 0.009174311926605507x(1,0) 
[(0, 1), (3, 2), (0, 0), (3, 0), (0, 2), (2, 1), (2, 2), (1, 0), (1, 1), (0, 3)]
cliques:  1 mip: 72
C:  29.699716713880658
x(0,0) = 5.70	 x(0,1) = 22.70	 x(0,2) = 16.70	 x(0,3) = 15.70	 
x(1,0) = -0.00	 x(1,1) = 8.00	 x(1,2) = 13.00	 x(1,3) = 1.00	 
x(2,0) = 22.70	 x(2,1) = 15.70	 x(2,2) = 12.70	 x(2,3) = 3.70	 
x(3,0) = 10.09	 x(3,1) = 0.00	 x(3,2) = 19.09	 x(3,3) = 7.08	 
y(0,1,0) = 0.00	 y(1,0,0) = 1.00	 
y(0,2,0) = 0.70	 y(2,0,0) = 0.30	 
y(0,3,0) = 0.39	 y(3,0,0) = 0.61	 
y(1,2,0) = 0.54	 y(2,1,0) = 0.46	 
y(1,3,0) = 0.62	 y(3,1,0) = 0.38	 
y(2,3,0) = 0.00	 y(3,2,0) = 1.00	 
y(0,1,1) = 0.13	 y(1,0,1) = 0.87	 
y(0,2,1) = 0.00	 y(2,0,1) = 1.00	 
y(0,3,1) = 0.00	 y(3,0,1) = 1.00	 
y(1,2,1) = 0.42	 y(2,1,1) = 0.58	 
y(1,3,1) = 0.04	 y(3,1,1) = 0.96	 
y(2,3,1) = 0.00	 y(3,2,1) = 1.00	 
y(0,1,2) = 0.13	 y(1,0,2) = 0.87	 
y(0,2,2) = 0.14	 y(2,0,2) = 0.86	 
y(0,3,2) = 0.71	 y(3,0,2) = 0.29	 
y(1,2,2) = 0.12	 y(2,1,2) = 0.88	 
y(1,3,2) = 0.92	 y(3,1,2) = 0.08	 
y(2,3,2) = 0.85	 y(3,2,2) = 0.15	 
y(0,1,3) = 0.00	 y(1,0,3) = 1.00	 
y(0,2,3) = 0.14	 y(2,0,3) = 0.86	 
y(0,3,3) = 0.26	 y(3,0,3) = 0.74	 
y(1,2,3) = 0.37	 y(2,1,3) = 0.63	 
y(1,3,3) = 0.38	 y(3,1,3) = 0.62	 
y(2,3,3) = 0.26	 y(3,2,3) = 0.74	 
16.69971671388065 12.999999999997991 8
12.999999999997991 12.699716713880653 3
obj:  0.48276748800671
solutions:  1
+ 0.0708215297450425x(1,3) + 0.0226628895184136x(3,3) + 0.0679886685552408x(2,3) 
[(1, 2), (3, 2), (0, 0), (1, 3), (3, 3), (3, 0), (2, 3), (2, 2), (0, 2)]
cliques:  1 mip: 121
C:  30.99999999999995
x(0,0) = 2.00	 x(0,1) = 22.44	 x(0,2) = 13.68	 x(0,3) = 12.68	 
x(1,0) = 0.00	 x(1,1) = 8.00	 x(1,2) = 13.00	 x(1,3) = 1.00	 
x(2,0) = 30.00	 x(2,1) = 23.00	 x(2,2) = 20.00	 x(2,3) = 11.00	 
x(3,0) = 12.00	 x(3,1) = 1.00	 x(3,2) = 21.00	 x(3,3) = 8.00	 
y(0,1,0) = 0.00	 y(1,0,0) = 1.00	 
y(0,2,0) = 0.84	 y(2,0,0) = 0.16	 
y(0,3,0) = 1.00	 y(3,0,0) = -0.00	 
y(1,2,0) = 1.00	 y(2,1,0) = 0.00	 
y(1,3,0) = 0.62	 y(3,1,0) = 0.38	 
y(2,3,0) = 0.00	 y(3,2,0) = 1.00	 
y(0,1,1) = 0.00	 y(1,0,1) = 1.00	 
y(0,2,1) = 0.29	 y(2,0,1) = 0.71	 
y(0,3,1) = 0.00	 y(3,0,1) = 1.00	 
y(1,2,1) = 0.90	 y(2,1,1) = 0.10	 
y(1,3,1) = -0.00	 y(3,1,1) = 1.00	 
y(2,3,1) = 0.00	 y(3,2,1) = 1.00	 
y(0,1,2) = 0.72	 y(1,0,2) = 0.28	 
y(0,2,2) = 0.37	 y(2,0,2) = 0.63	 
y(0,3,2) = 1.00	 y(3,0,2) = 0.00	 
y(1,2,2) = 0.43	 y(2,1,2) = 0.57	 
y(1,3,2) = 1.00	 y(3,1,2) = -0.00	 
y(2,3,2) = 0.88	 y(3,2,2) = 0.12	 
y(0,1,3) = 0.00	 y(1,0,3) = 1.00	 
y(0,2,3) = 0.46	 y(2,0,3) = 0.54	 
y(0,3,3) = 0.00	 y(3,0,3) = 1.00	 
y(1,2,3) = 0.87	 y(2,1,3) = 0.13	 
y(1,3,3) = 0.90	 y(3,1,3) = 0.10	 
y(2,3,3) = 0.00	 y(3,2,3) = 1.00	 
7.999999999999447 1.000000000000821 7
13.675799086757666 12.999999999999446 8
12.675799086757664 10.999999999999947 9
10.999999999999947 8.000000000001888 3
obj:  0.8151756659326828
solutions:  1
+ 0.02275960170697013x(1,2) + 0.017780938833570414x(3,2) + 0.010668563300142249x(0,2) 
[(0, 1), (1, 2), (3, 2), (3, 3), (3, 1), (2, 1), (2, 3), (2, 2), (0, 3), (0, 2)]
cliques:  1 mip: 52
C:  32.17582627361696
x(0,0) = 4.56	 x(0,1) = 25.18	 x(0,2) = 17.43	 x(0,3) = 16.43	 
x(1,0) = 1.50	 x(1,1) = 9.50	 x(1,2) = 20.92	 x(1,3) = 2.50	 
x(2,0) = 31.18	 x(2,1) = 21.77	 x(2,2) = 18.77	 x(2,3) = 9.77	 
x(3,0) = 10.00	 x(3,1) = 0.00	 x(3,2) = 19.00	 x(3,3) = 7.00	 
y(0,1,0) = 0.00	 y(1,0,0) = 1.00	 
y(0,2,0) = 0.78	 y(2,0,0) = 0.22	 
y(0,3,0) = 0.77	 y(3,0,0) = 0.23	 
y(1,2,0) = 1.00	 y(2,1,0) = 0.00	 
y(1,3,0) = 0.81	 y(3,1,0) = 0.19	 
y(2,3,0) = 0.00	 y(3,2,0) = 1.00	 
y(0,1,1) = 0.00	 y(1,0,1) = 1.00	 
y(0,2,1) = 0.14	 y(2,0,1) = 0.86	 
y(0,3,1) = 0.00	 y(3,0,1) = 1.00	 
y(1,2,1) = 0.92	 y(2,1,1) = 0.08	 
y(1,3,1) = 0.60	 y(3,1,1) = 0.40	 
y(2,3,1) = 0.00	 y(3,2,1) = 1.00	 
y(0,1,2) = 0.90	 y(1,0,2) = 0.10	 
y(0,2,2) = 0.17	 y(2,0,2) = 0.83	 
y(0,3,2) = 0.75	 y(3,0,2) = 0.25	 
y(1,2,2) = 0.04	 y(2,1,2) = 0.96	 
y(1,3,2) = 0.60	 y(3,1,2) = 0.40	 
y(2,3,2) = 0.84	 y(3,2,2) = 0.16	 
y(0,1,3) = 0.00	 y(1,0,3) = 1.00	 
y(0,2,3) = 0.31	 y(2,0,3) = 0.69	 
y(0,3,3) = 0.00	 y(3,0,3) = 1.00	 
y(1,2,3) = 0.89	 y(2,1,3) = 0.11	 
y(1,3,3) = 0.55	 y(3,1,3) = 0.45	 
y(2,3,3) = 0.01	 y(3,2,3) = 0.99	 
25.175826273616977 21.768019336709543 7
20.92445710505302 18.76801933670954 3
20.92445710505302 19.0 10
16.427824842553566 9.768019336709537 9
9.768019336709537 6.999999999999997 3
obj:  0.934267740323515
solutions:  1
+ 0.01493039964077233x(1,2) + 0.02346205657835654x(3,2) + 0.010103277952402331x(0,2) 
[(0, 1), (1, 2), (3, 2), (0, 0), (3, 0), (2, 1), (2, 3), (2, 2), (0, 3), (0, 2)]
cliques:  1 mip: 136
C:  33.500444608720684
x(0,0) = 4.99	 x(0,1) = 26.50	 x(0,2) = 20.50	 x(0,3) = 19.50	 
x(1,0) = 2.81	 x(1,1) = 10.81	 x(1,2) = 18.09	 x(1,3) = 3.81	 
x(2,0) = 32.50	 x(2,1) = 21.41	 x(2,2) = 18.41	 x(2,3) = 8.41	 
x(3,0) = 13.28	 x(3,1) = 0.00	 x(3,2) = 22.28	 x(3,3) = 7.00	 
y(0,1,0) = 0.00	 y(1,0,0) = 1.00	 
y(0,2,0) = 0.72	 y(2,0,0) = 0.28	 
y(0,3,0) = 0.91	 y(3,0,0) = 0.09	 
y(1,2,0) = 1.00	 y(2,1,0) = 0.00	 
y(1,3,0) = 0.77	 y(3,1,0) = 0.23	 
y(2,3,0) = 0.00	 y(3,2,0) = 1.00	 
y(0,1,1) = 0.31	 y(1,0,1) = 0.69	 
y(0,2,1) = 0.07	 y(2,0,1) = 0.93	 
y(0,3,1) = 0.00	 y(3,0,1) = 1.00	 
y(1,2,1) = 0.84	 y(2,1,1) = 0.16	 
y(1,3,1) = 0.56	 y(3,1,1) = 0.44	 
y(2,3,1) = 0.00	 y(3,2,1) = 1.00	 
y(0,1,2) = 0.36	 y(1,0,2) = 0.64	 
y(0,2,2) = 0.07	 y(2,0,2) = 0.93	 
y(0,3,2) = 0.77	 y(3,0,2) = 0.23	 
y(1,2,2) = 0.24	 y(2,1,2) = 0.76	 
y(1,3,2) = 0.85	 y(3,1,2) = 0.15	 
y(2,3,2) = 1.00	 y(3,2,2) = 0.00	 
y(0,1,3) = 0.00	 y(1,0,3) = 1.00	 
y(0,2,3) = 0.17	 y(2,0,3) = 0.83	 
y(0,3,3) = 0.00	 y(3,0,3) = 1.00	 
y(1,2,3) = 0.72	 y(2,1,3) = 0.28	 
y(1,3,3) = 0.30	 y(3,1,3) = 0.70	 
y(2,3,3) = 0.06	 y(3,2,3) = 0.94	 
26.50044460872068 21.407685458850754 7
20.500444608720688 18.092524054485196 8
20.500444608720688 18.40768545885075 3
8.406775159904154 7.0 3
obj:  0.9999999999999998
erro
[(0, 1), (1, 2), (3, 2), (0, 0), (1, 3), (3, 0), (2, 1), (2, 3), (2, 2), (0, 2)]
cliques:  0 mip: 116
C:  34.0
x(0,0) = 4.51	 x(0,1) = 26.03	 x(0,2) = 19.60	 x(0,3) = 18.60	 
x(1,0) = 2.66	 x(1,1) = 10.66	 x(1,2) = 16.00	 x(1,3) = 3.66	 
x(2,0) = 33.00	 x(2,1) = 20.54	 x(2,2) = 17.54	 x(2,3) = 8.54	 
x(3,0) = 15.00	 x(3,1) = 0.00	 x(3,2) = 24.00	 x(3,3) = 7.07	 
y(0,1,0) = 0.00	 y(1,0,0) = 1.00	 
y(0,2,0) = 0.67	 y(2,0,0) = 0.33	 
y(0,3,0) = 0.97	 y(3,0,0) = 0.03	 
y(1,2,0) = 1.00	 y(2,1,0) = 0.00	 
y(1,3,0) = 0.80	 y(3,1,0) = 0.20	 
y(2,3,0) = 0.00	 y(3,2,0) = 1.00	 
y(0,1,1) = 0.31	 y(1,0,1) = 0.69	 
y(0,2,1) = 0.06	 y(2,0,1) = 0.94	 
y(0,3,1) = 0.00	 y(3,0,1) = 1.00	 
y(1,2,1) = 0.79	 y(2,1,1) = 0.21	 
y(1,3,1) = 0.57	 y(3,1,1) = 0.43	 
y(2,3,1) = 0.00	 y(3,2,1) = 1.00	 
y(0,1,2) = 0.38	 y(1,0,2) = 0.62	 
y(0,2,2) = 0.06	 y(2,0,2) = 0.94	 
y(0,3,2) = 0.62	 y(3,0,2) = 0.38	 
y(1,2,2) = 0.34	 y(2,1,2) = 0.66	 
y(1,3,2) = 1.00	 y(3,1,2) = 0.00	 
y(2,3,2) = 1.00	 y(3,2,2) = 0.00	 
y(0,1,3) = 0.00	 y(1,0,3) = 1.00	 
y(0,2,3) = 0.26	 y(2,0,3) = 0.74	 
y(0,3,3) = 0.00	 y(3,0,3) = 1.00	 
y(1,2,3) = 0.73	 y(2,1,3) = 0.27	 
y(1,3,3) = 0.27	 y(3,1,3) = 0.73	 
y(2,3,3) = 0.06	 y(3,2,3) = 0.94	 
26.030960821878445 20.542496647967855 7
19.59999999999998 16.000000000000004 8
19.59999999999998 17.542496647967855 3
8.542496647967853 7.066327335355948 3
obj:  0.8828852524084693
solutions:  1
+ 0.006568144499178983x(1,3) + 0.10235358511220581x(3,3) + 0.01587301587301586x(2,3) 
[(0, 1), (1, 2), (3, 2), (1, 3), (3, 3), (2, 1), (2, 3), (2, 2), (0, 2)]
cliques:  1 mip: 92
C:  34.15861472250534
x(0,0) = 1.00	 x(0,1) = 27.16	 x(0,2) = 18.10	 x(0,3) = 17.10	 
x(1,0) = 0.00	 x(1,1) = 12.74	 x(1,2) = 18.48	 x(1,3) = 1.00	 
x(2,0) = 33.16	 x(2,1) = 22.32	 x(2,2) = 19.32	 x(2,3) = 10.32	 
x(3,0) = 13.03	 x(3,1) = 0.93	 x(3,2) = 23.06	 x(3,3) = 10.03	 
y(0,1,0) = 0.00	 y(1,0,0) = 1.00	 
y(0,2,0) = 0.99	 y(2,0,0) = 0.01	 
y(0,3,0) = 0.86	 y(3,0,0) = 0.14	 
y(1,2,0) = 1.00	 y(2,1,0) = 0.00	 
y(1,3,0) = 0.84	 y(3,1,0) = 0.16	 
y(2,3,0) = 0.00	 y(3,2,0) = 1.00	 
y(0,1,1) = 0.23	 y(1,0,1) = 0.77	 
y(0,2,1) = 0.08	 y(2,0,1) = 0.92	 
y(0,3,1) = 0.00	 y(3,0,1) = 1.00	 
y(1,2,1) = 0.74	 y(2,1,1) = 0.26	 
y(1,3,1) = 0.20	 y(3,1,1) = 0.80	 
y(2,3,1) = 0.00	 y(3,2,1) = 1.00	 
y(0,1,2) = 0.77	 y(1,0,2) = 0.23	 
y(0,2,2) = 0.17	 y(2,0,2) = 0.83	 
y(0,3,2) = 0.75	 y(3,0,2) = 0.25	 
y(1,2,2) = 0.17	 y(2,1,2) = 0.83	 
y(1,3,2) = 0.86	 y(3,1,2) = 0.14	 
y(2,3,2) = 1.00	 y(3,2,2) = 0.00	 
y(0,1,3) = 0.00	 y(1,0,3) = 1.00	 
y(0,2,3) = 0.75	 y(2,0,3) = 0.25	 
y(0,3,3) = 0.00	 y(3,0,3) = 1.00	 
y(1,2,3) = 1.00	 y(2,1,3) = -0.00	 
y(1,3,3) = 0.82	 y(3,1,3) = 0.18	 
y(2,3,3) = 0.34	 y(3,2,3) = 0.66	 
27.158614722504325 22.323675327349598 7
17.102021056258405 10.32367532735003 9
10.32367532735003 10.028974017949917 3
obj:  0.9999999999999999
erro
[(0, 1), (1, 2), (3, 2), (3, 3), (2, 1), (2, 3), (2, 2), (0, 3), (0, 2)]
cliques:  0 mip: 110
C:  35.0
x(0,0) = 2.25	 x(0,1) = 28.00	 x(0,2) = 21.01	 x(0,3) = 19.92	 
x(1,0) = 1.08	 x(1,1) = 11.07	 x(1,2) = 16.07	 x(1,3) = 3.50	 
x(2,0) = 34.00	 x(2,1) = 21.23	 x(2,2) = 18.01	 x(2,3) = 7.29	 
x(3,0) = 14.32	 x(3,1) = 0.81	 x(3,2) = 23.81	 x(3,3) = 11.32	 
y(0,1,0) = 0.00	 y(1,0,0) = 1.00	 
y(0,2,0) = 0.78	 y(2,0,0) = 0.22	 
y(0,3,0) = 0.81	 y(3,0,0) = 0.19	 
y(1,2,0) = 0.91	 y(2,1,0) = 0.09	 
y(1,3,0) = 0.79	 y(3,1,0) = 0.21	 
y(2,3,0) = 0.00	 y(3,2,0) = 1.00	 
y(0,1,1) = 0.14	 y(1,0,1) = 0.86	 
y(0,2,1) = 0.01	 y(2,0,1) = 0.99	 
y(0,3,1) = 0.00	 y(3,0,1) = 1.00	 
y(1,2,1) = 0.83	 y(2,1,1) = 0.17	 
y(1,3,1) = 0.19	 y(3,1,1) = 0.81	 
y(2,3,1) = 0.00	 y(3,2,1) = 1.00	 
y(0,1,2) = 0.13	 y(1,0,2) = 0.87	 
y(0,2,2) = 0.00	 y(2,0,2) = 1.00	 
y(0,3,2) = 0.69	 y(3,0,2) = 0.31	 
y(1,2,2) = 0.21	 y(2,1,2) = 0.79	 
y(1,3,2) = 0.85	 y(3,1,2) = 0.15	 
y(2,3,2) = 1.00	 y(3,2,2) = 0.00	 
y(0,1,3) = 0.00	 y(1,0,3) = 1.00	 
y(0,2,3) = 0.56	 y(2,0,3) = 0.44	 
y(0,3,3) = 0.00	 y(3,0,3) = 1.00	 
y(1,2,3) = 0.66	 y(2,1,3) = 0.34	 
y(1,3,3) = 0.69	 y(3,1,3) = 0.31	 
y(2,3,3) = 0.72	 y(3,2,3) = 0.28	 
27.999999999999996 21.23380175407848 7
21.008992375156858 16.07433167817302 8
obj:  0.9953329204171598
solutions:  1
+ 0.0047589636161292255x(1,2) + 0.007733315876209994x(3,2) + 0.046382817636628146x(1,3) + 0.019878350415697767x(3,3) + 0.043898023834665935x(2,3) + 0.0012978991680352443x(0,2) 
[(0, 1), (1, 2), (3, 2), (1, 3), (3, 3), (2, 1), (2, 3), (2, 2), (0, 2)]
cliques:  1 mip: 108
C:  35.0
x(0,0) = 2.05	 x(0,1) = 27.27	 x(0,2) = 20.30	 x(0,3) = 19.30	 
x(1,0) = 1.14	 x(1,1) = 10.42	 x(1,2) = 15.81	 x(1,3) = 2.38	 
x(2,0) = 34.00	 x(2,1) = 22.67	 x(2,2) = 19.67	 x(2,3) = 8.24	 
x(3,0) = 15.63	 x(3,1) = 0.90	 x(3,2) = 24.63	 x(3,3) = 11.95	 
y(0,1,0) = 0.00	 y(1,0,0) = 1.00	 
y(0,2,0) = 0.90	 y(2,0,0) = 0.10	 
y(0,3,0) = 0.88	 y(3,0,0) = 0.12	 
y(1,2,0) = 0.92	 y(2,1,0) = 0.08	 
y(1,3,0) = 0.87	 y(3,1,0) = 0.13	 
y(2,3,0) = 0.00	 y(3,2,0) = 1.00	 
y(0,1,1) = 0.10	 y(1,0,1) = 0.90	 
y(0,2,1) = 0.09	 y(2,0,1) = 0.91	 
y(0,3,1) = 0.00	 y(3,0,1) = 1.00	 
y(1,2,1) = 0.82	 y(2,1,1) = 0.18	 
y(1,3,1) = 0.10	 y(3,1,1) = 0.90	 
y(2,3,1) = 0.00	 y(3,2,1) = 1.00	 
y(0,1,2) = 0.20	 y(1,0,2) = 0.80	 
y(0,2,2) = 0.09	 y(2,0,2) = 0.91	 
y(0,3,2) = 0.91	 y(3,0,2) = 0.09	 
y(1,2,2) = 0.30	 y(2,1,2) = 0.70	 
y(1,3,2) = 0.96	 y(3,1,2) = 0.04	 
y(2,3,2) = 1.00	 y(3,2,2) = 0.00	 
y(0,1,3) = 0.00	 y(1,0,3) = 1.00	 
y(0,2,3) = 0.00	 y(2,0,3) = 1.00	 
y(0,3,3) = 0.00	 y(3,0,3) = 1.00	 
y(1,2,3) = 0.64	 y(2,1,3) = 0.36	 
y(1,3,3) = 0.81	 y(3,1,3) = 0.19	 
y(2,3,3) = 0.48	 y(3,2,3) = 0.52	 
2.0547901815231753 1.14400101005572 1
27.27491244841094 22.669989492516095 7
20.297771893177874 15.80777935695616 8
20.297771893177874 19.669989492516095 3
obj:  1.014280476204183
erro
[(0, 1), (1, 2), (3, 2), (0, 0), (1, 3), (2, 1), (2, 3), (2, 2), (1, 0), (0, 2)]
cliques:  0 mip: 113
C:  34.99999999999999
x(0,0) = 2.00	 x(0,1) = 28.00	 x(0,2) = 21.24	 x(0,3) = 20.24	 
x(1,0) = 1.00	 x(1,1) = 11.07	 x(1,2) = 16.62	 x(1,3) = 2.00	 
x(2,0) = 34.00	 x(2,1) = 23.98	 x(2,2) = 20.98	 x(2,3) = 8.75	 
x(3,0) = 14.98	 x(3,1) = 0.87	 x(3,2) = 23.98	 x(3,3) = 11.61	 
y(0,1,0) = 0.00	 y(1,0,0) = 1.00	 
y(0,2,0) = 0.84	 y(2,0,0) = 0.16	 
y(0,3,0) = 0.86	 y(3,0,0) = 0.14	 
y(1,2,0) = 0.97	 y(2,1,0) = 0.03	 
y(1,3,0) = 0.85	 y(3,1,0) = 0.15	 
y(2,3,0) = 0.00	 y(3,2,0) = 1.00	 
y(0,1,1) = 0.10	 y(1,0,1) = 0.90	 
y(0,2,1) = 0.11	 y(2,0,1) = 0.89	 
y(0,3,1) = 0.00	 y(3,0,1) = 1.00	 
y(1,2,1) = 0.83	 y(2,1,1) = 0.17	 
y(1,3,1) = 0.13	 y(3,1,1) = 0.87	 
y(2,3,1) = 0.00	 y(3,2,1) = 1.00	 
y(0,1,2) = 0.47	 y(1,0,2) = 0.53	 
y(0,2,2) = 0.12	 y(2,0,2) = 0.88	 
y(0,3,2) = 0.68	 y(3,0,2) = 0.32	 
y(1,2,2) = 0.32	 y(2,1,2) = 0.68	 
y(1,3,2) = 0.87	 y(3,1,2) = 0.13	 
y(2,3,2) = 1.00	 y(3,2,2) = 0.00	 
y(0,1,3) = 0.00	 y(1,0,3) = 1.00	 
y(0,2,3) = 0.42	 y(2,0,3) = 0.58	 
y(0,3,3) = 0.00	 y(3,0,3) = 1.00	 
y(1,2,3) = 0.65	 y(2,1,3) = 0.35	 
y(1,3,3) = 0.81	 y(3,1,3) = 0.19	 
y(2,3,3) = 0.33	 y(3,2,3) = 0.67	 
28.000000000000004 23.979100481129173 7
21.23927077540001 16.62417261447135 8
21.23927077540001 20.979100481129176 3
obj:  0.9999999999999999
erro
[(0, 1), (1, 2), (3, 2), (1, 3), (3, 3), (2, 1), (2, 3), (2, 2), (0, 2)]
cliques:  0 mip: 107
C:  34.99999999999999
x(0,0) = 1.87	 x(0,1) = 28.00	 x(0,2) = 21.11	 x(0,3) = 14.33	 
x(1,0) = 0.87	 x(1,1) = 10.86	 x(1,2) = 16.58	 x(1,3) = 1.87	 
x(2,0) = 34.00	 x(2,1) = 23.42	 x(2,2) = 20.42	 x(2,3) = 9.25	 
x(3,0) = 15.18	 x(3,1) = 0.88	 x(3,2) = 24.18	 x(3,3) = 11.33	 
y(0,1,0) = 0.00	 y(1,0,0) = 1.00	 
y(0,2,0) = 0.86	 y(2,0,0) = 0.14	 
y(0,3,0) = 0.87	 y(3,0,0) = 0.13	 
y(1,2,0) = 0.95	 y(2,1,0) = 0.05	 
y(1,3,0) = 0.87	 y(3,1,0) = 0.13	 
y(2,3,0) = 0.00	 y(3,2,0) = 1.00	 
y(0,1,1) = 0.10	 y(1,0,1) = 0.90	 
y(0,2,1) = 0.11	 y(2,0,1) = 0.89	 
y(0,3,1) = 0.00	 y(3,0,1) = 1.00	 
y(1,2,1) = 0.80	 y(2,1,1) = 0.20	 
y(1,3,1) = 0.12	 y(3,1,1) = 0.88	 
y(2,3,1) = 0.00	 y(3,2,1) = 1.00	 
y(0,1,2) = 0.44	 y(1,0,2) = 0.56	 
y(0,2,2) = 0.09	 y(2,0,2) = 0.91	 
y(0,3,2) = 0.74	 y(3,0,2) = 0.26	 
y(1,2,2) = 0.30	 y(2,1,2) = 0.70	 
y(1,3,2) = 0.90	 y(3,1,2) = 0.10	 
y(2,3,2) = 0.47	 y(3,2,2) = 0.53	 
y(0,1,3) = 0.00	 y(1,0,3) = 1.00	 
y(0,2,3) = 0.57	 y(2,0,3) = 0.43	 
y(0,3,3) = 0.00	 y(3,0,3) = 1.00	 
y(1,2,3) = 0.71	 y(2,1,3) = 0.29	 
y(1,3,3) = 0.80	 y(3,1,3) = 0.20	 
y(2,3,3) = 0.29	 y(3,2,3) = 0.71	 
28.000000000000004 23.416779655264158 7
21.11405888279353 16.578125791423616 8
21.11405888279353 20.41677965526416 3
14.325149068551621 9.253231742799109 9
obj:  1.028222641017361
erro
[(0, 1), (1, 2), (3, 2), (3, 3), (2, 1), (2, 3), (2, 2), (0, 3), (0, 2)]
cliques:  0 mip: 0
iterações: 11 cortes cliques encontrados: 7 mip: 1055 objective:  34.99999999999999
Coin0506I Presolve 157 (-171) rows, 90 (-71) columns and 490 (-260) elements
Clp1000I sum of infeasibilities 1.79124e-08 - average 1.14092e-10, 0 fixed columns
Coin0506I Presolve 157 (0) rows, 90 (0) columns and 490 (0) elements
Clp0029I End of values pass after 90 iterations
Clp0000I Optimal - objective value 29
Clp0000I Optimal - objective value 29
Coin0511I After Postsolve, objective 29, infeasibilities - dual 0 (0), primal 0 (0)
Clp0000I Optimal - objective value 29
Clp0000I Optimal - objective value 29
Clp0000I Optimal - objective value 29
Coin0511I After Postsolve, objective 29, infeasibilities - dual 0 (0), primal 0 (0)
Clp0032I Optimal objective 29 - 0 iterations time 0.012, Presolve 0.00, Idiot 0.01
Coin3009W Conflict graph built in 0.000 seconds, density: 0.070%
